Gurobi Optimizer version 9.1.0 build v9.1.0rc0 (linux64)
Thread count: 8 physical cores, 16 logical processors, using up to 16 threads
Optimize a model with 96164 rows, 90720 columns and 526770 nonzeros
Model fingerprint: 0xc56ff3dc
Variable types: 0 continuous, 90720 integer (90720 binary)
Coefficient statistics:
  Matrix range     [1e+00, 1e+00]
  Objective range  [1e+01, 3e+04]
  Bounds range     [1e+00, 1e+00]
  RHS range        [1e+00, 2e+02]
Presolve added 0 rows and 2470 columns
Presolve removed 30 rows and 0 columns
Presolve time: 2.17s
Presolved: 96134 rows, 93190 columns, 384210 nonzeros
Variable types: 0 continuous, 93190 integer (93190 binary)
Found heuristic solution: objective 288210.00000

Concurrent LP optimizer: primal simplex, dual simplex, and barrier
Showing barrier log only...

Root barrier log...

Ordering time: 0.38s

Barrier statistics:
 Dense cols : 360
 AA' NZ     : 2.982e+05
 Factor NZ  : 1.555e+06 (roughly 90 MBytes of memory)
 Factor Ops : 4.160e+08 (less than 1 second per iteration)
 Threads    : 6

                  Objective                Residual
Iter       Primal          Dual         Primal    Dual     Compl     Time
   0   7.36585502e+07 -1.10641328e+08  2.04e+02 3.27e+01  9.52e+03     4s
   1   6.82183394e+05 -1.16385123e+08  1.16e+00 3.78e+02  4.67e+02     4s
   2   3.86960579e+05 -4.61855875e+07  2.62e-01 1.45e+02  1.73e+02     4s
   3   3.40851813e+05 -1.31163118e+07  1.18e-01 4.03e+01  4.92e+01     5s
   4   3.14092657e+05 -9.98067575e+05  4.61e-02 1.04e+01  4.72e+00     5s
   5   2.96113042e+05 -3.78591179e+05  3.13e-02 5.18e+00  2.41e+00     5s
   6   2.78805500e+05  6.98034514e+03  2.15e-02 4.07e+00  9.63e-01     5s
   7   2.64950757e+05  1.33246247e+05  1.57e-02 1.55e+00  4.62e-01     5s
   8   2.55801586e+05  1.73032069e+05  1.24e-02 7.69e-01  2.88e-01     6s
   9   2.51745485e+05  1.88579248e+05  1.10e-02 4.55e-01  2.18e-01     6s
  10   2.43480396e+05  1.95054985e+05  8.19e-03 3.40e-01  1.67e-01     6s
  11   2.42325109e+05  2.01550568e+05  7.81e-03 2.45e-01  1.40e-01     6s
  12   2.38826871e+05  2.04616360e+05  6.66e-03 1.93e-01  1.18e-01     6s
  13   2.32752372e+05  2.07989788e+05  4.84e-03 1.42e-01  8.51e-02     7s
  14   2.29774047e+05  2.10350737e+05  3.91e-03 1.06e-01  6.66e-02     7s
  15   2.27839460e+05  2.12456776e+05  3.28e-03 7.67e-02  5.26e-02     7s
  16   2.26153615e+05  2.13824391e+05  2.76e-03 5.85e-02  4.21e-02     7s
  17   2.24317675e+05  2.14851022e+05  2.16e-03 4.39e-02  3.23e-02     7s
  18   2.22743888e+05  2.15707414e+05  1.63e-03 3.47e-02  2.40e-02     7s
  19   2.21738504e+05  2.16237669e+05  1.30e-03 2.73e-02  1.87e-02     7s
  20   2.20872830e+05  2.16630328e+05  9.93e-04 2.07e-02  1.44e-02     8s
  21   2.20354264e+05  2.17111597e+05  8.09e-04 1.35e-02  1.10e-02     8s
  22   2.19700917e+05  2.17263731e+05  5.90e-04 1.10e-02  8.28e-03     8s
  23   2.19277099e+05  2.17551582e+05  4.43e-04 6.84e-03  5.84e-03     8s
  24   2.19019596e+05  2.17635302e+05  3.50e-04 5.57e-03  4.69e-03     8s
  25   2.18689656e+05  2.17717552e+05  2.42e-04 4.35e-03  3.30e-03     8s
  26   2.18528690e+05  2.17778598e+05  1.86e-04 3.34e-03  2.54e-03     8s
  27   2.18399567e+05  2.17848018e+05  1.38e-04 2.30e-03  1.87e-03     9s
  28   2.18347081e+05  2.17901954e+05  1.19e-04 1.54e-03  1.50e-03     9s
  29   2.18255673e+05  2.17941585e+05  8.50e-05 1.04e-03  1.06e-03     9s
  30   2.18244063e+05  2.17954216e+05  8.08e-05 8.71e-04  9.76e-04     9s
  31   2.18215272e+05  2.17965722e+05  7.01e-05 7.10e-04  8.39e-04     9s
  32   2.18163992e+05  2.17979159e+05  5.13e-05 5.05e-04  6.22e-04     9s
  33   2.18130084e+05  2.17991248e+05  3.92e-05 3.44e-04  4.67e-04     9s
  34   2.18108373e+05  2.17995995e+05  3.12e-05 2.85e-04  3.78e-04    10s
  35   2.18092337e+05  2.18000792e+05  2.57e-05 2.32e-04  3.08e-04    10s
  36   2.18072596e+05  2.18005569e+05  1.84e-05 1.69e-04  2.26e-04    10s
  37   2.18066228e+05  2.18010309e+05  1.62e-05 1.18e-04  1.88e-04    10s
  38   2.18054571e+05  2.18013741e+05  1.21e-05 6.58e-05  1.37e-04    10s
  39   2.18045602e+05  2.18015059e+05  8.86e-06 5.27e-05  1.03e-04    10s
  40   2.18040842e+05  2.18015825e+05  7.29e-06 4.58e-05  8.39e-05    10s
  41   2.18034670e+05  2.18016841e+05  5.10e-06 3.67e-05  5.99e-05    11s
  42   2.18032108e+05  2.18018323e+05  4.13e-06 2.41e-05  4.62e-05    11s
  43   2.18028040e+05  2.18018964e+05  2.79e-06 1.76e-05  3.03e-05    11s
  44   2.18027410e+05  2.18019156e+05  2.55e-06 1.57e-05  2.76e-05    11s
  45   2.18025860e+05  2.18019553e+05  1.97e-06 1.18e-05  2.11e-05    11s
  46   2.18024396e+05  2.18019941e+05  1.37e-06 8.30e-06  1.49e-05    11s
  47   2.18023049e+05  2.18020492e+05  8.22e-07 3.71e-06  8.52e-06    11s
  48   2.18022175e+05  2.18020826e+05  4.71e-07 1.12e-06  4.46e-06    11s
  49   2.18022042e+05  2.18020878e+05  4.18e-07 6.17e-07  3.84e-06    12s
  50   2.18021782e+05  2.18020894e+05  3.15e-07 4.11e-07  2.94e-06    12s
  51   2.18021672e+05  2.18020906e+05  2.73e-07 3.09e-07  2.53e-06    12s
  52   2.18021478e+05  2.18020908e+05  1.98e-07 3.00e-07  1.89e-06    12s
  53   2.18021172e+05  2.18020913e+05  7.73e-08 2.68e-07  8.69e-07    12s
  54   2.18021131e+05  2.18020960e+05  6.14e-08 7.87e-08  5.66e-07    12s
  55   2.18020975e+05  2.18020966e+05  1.36e-09 1.54e-07  3.05e-08    12s
  56   2.18020973e+05  2.18020967e+05  1.42e-08 1.12e-07  2.10e-08    12s
  57   2.18020973e+05  2.18020967e+05  1.41e-08 1.12e-07  2.09e-08    13s
  58   2.18020973e+05  2.18020967e+05  1.41e-08 1.12e-07  2.09e-08    13s
  59   2.18020973e+05  2.18020967e+05  1.41e-08 9.99e-08  2.09e-08    13s

Barrier solved model in 59 iterations and 12.89 seconds
Optimal objective 2.18020973e+05


Root crossover log...

   22124 DPushes remaining with DInf 0.0000000e+00                13s
       0 DPushes remaining with DInf 0.0000000e+00                14s

     791 PPushes remaining with PInf 0.0000000e+00                14s
       0 PPushes remaining with PInf 0.0000000e+00                14s

  Push phase complete: Pinf 0.0000000e+00, Dinf 3.3420444e-10     14s


Root simplex log...

Iteration    Objective       Primal Inf.    Dual Inf.      Time
    4427    2.1802097e+05   0.000000e+00   0.000000e+00     14s
    4427    2.1802097e+05   0.000000e+00   0.000000e+00     14s

Solved with barrier

Root relaxation: objective 2.180210e+05, 4427 iterations, 11.19 seconds
Total elapsed time = 15.11s

    Nodes    |    Current Node    |     Objective Bounds      |     Work
 Expl Unexpl |  Obj  Depth IntInf | Incumbent    BestBd   Gap | It/Node Time

     0     0 218020.969    0 10915 288210.000 218020.969  24.4%     -   16s
H    0     0                    236163.00000 218020.969  7.68%     -   16s
H    0     0                    235716.00000 218020.969  7.51%     -   16s
     0     0 218022.073    0 10911 235716.000 218022.073  7.51%     -   23s
H    0     0                    235704.00000 218022.073  7.50%     -   23s
H    0     0                    234741.00000 218022.073  7.12%     -   27s
     0     0 218022.622    0 10908 234741.000 218022.622  7.12%     -   28s
     0     0 218024.700    0 10905 234741.000 218024.700  7.12%     -   33s
H    0     0                    234715.00000 218024.700  7.11%     -   34s
H    0     0                    233629.00000 218024.700  6.68%     -   34s
     0     0 218025.399    0 10911 233629.000 218025.399  6.68%     -   35s
     0     0 218025.650    0 10909 233629.000 218025.650  6.68%     -   36s
     0     0 218025.650    0 10909 233629.000 218025.650  6.68%     -   48s
H    0     0                    233314.00000 218025.650  6.55%     -   91s
H    0     0                    231599.00000 218025.650  5.86%     -   92s
H    0     2                    231226.00000 218025.650  5.71%     -   93s
     0     2 218025.650    0 10909 231226.000 218025.650  5.71%     -   93s
     1     4 218150.381    1 10950 231226.000 218025.959  5.71% 13724  157s
     3     8 218203.636    2 11525 231226.000 218150.565  5.65% 17344  290s
H    6     8                    231221.00000 218203.647  5.63% 14658  290s
     7     9 219636.054    3 9476 231221.000 218203.647  5.63% 18154  300s

Cutting planes:
  Gomory: 5

Explored 8 nodes (135989 simplex iterations) in 300.03 seconds
Thread count was 16 (of 16 available processors)

Solution count 10: 231221 231226 231599 ... 236163

Time limit reached
Best objective 2.312210000000e+05, best bound 2.182040000000e+05, gap 5.6297%

User-callback calls 123079, time in user-callback 1.63 sec
Result: runtime=300.01sec; objective=231221; gap=5.6297%
Solution written to /autofs/unityaccount/cremi/mdeboute/Bureau/multi-period-flp/solution//instSingle_I30_J250_T12_1_result.txt
